85
78
33
22
51
36
16
23
55
31
41
0
58
49
70
61
0
59
65
58
0
0
54
0
56
75
38
55
21
34
0
53
0
44
62
30
0
44
76
37
41
74
68
62
22
74
28
56
79
28
60
71
55
59
28
0
19
20
90
55
0
64
75
28
55
33
92
44
41
27
55
33
37
46
25
0
67
32
25
59
31
39
0
45
54
34
62
63
22
43
45
33
63
53
37
0
49
62
73
18
